p cnf 7230 17
7177 7179 7188 0
7181 -7190 0
7181 -7196 0
7169 7183 -7191 0
-7169 -7192 0
-7195 -7196 0
-7087 -7190 7196 0
7193 7194 0
7185 -7194 0
-7185 -7193 0
7191 7192 0
7189 7190 0
-7181 -7189 0
-7183 -7192 0
-7187 -7188 0
7187 7188 0
7087 -7196 0
